NAME: rand_1/map4_180
TYPE: TSP
COMMENT: autogenerated using a wonderful map creator
DIMENSION: 210
EDGE_WEIGHT_TYPE: EUC_2D
NODE_COORD_SECTION
1 4.0 5.0
2 40.0 60.0
3 63.0 22.0
4 6.0 5.0
5 10.0 58.0
6 6.0 4.0
7 62.0 19.0
8 12.0 59.0
9 47.0 58.0
10 15.0 57.0
11 3.0 7.0
12 62.0 17.0
13 42.0 58.0
14 14.0 62.0
15 1.0 2.0
16 44.0 59.0
17 43.0 60.0
18 13.0 60.0
19 46.0 57.0
20 6.0 2.0
21 57.0 18.0
22 46.0 63.0
23 11.0 61.0
24 44.0 62.0
25 12.0 62.0
26 5.0 8.0
27 13.0 57.0
28 13.0 59.0
29 5.0 3.0
30 4.0 4.0
31 4.0 2.0
32 2.0 3.0
33 2.0 5.0
34 11.0 63.0
35 7.0 6.0
36 8.0 57.0
37 41.0 58.0
38 58.0 20.0
39 2.0 2.0
40 3.0 5.0
41 14.0 59.0
42 61.0 18.0
43 41.0 60.0
44 14.0 60.0
45 43.0 57.0
46 47.0 63.0
47 57.0 19.0
48 44.0 58.0
49 4.0 6.0
50 6.0 7.0
51 9.0 59.0
52 4.0 3.0
53 43.0 59.0
54 47.0 62.0
55 4.0 7.0
56 3.0 6.0
57 42.0 60.0
58 8.0 1.0
59 10.0 63.0
60 41.0 57.0
61 23.0 4.0
62 10.0 34.0
63 47.0 7.0
64 39.0 42.0
65 11.0 5.0
66 43.0 3.0
67 46.0 2.0
68 52.0 15.0
69 37.0 42.0
70 43.0 21.0
71 9.0 35.0
72 13.0 17.0
73 55.0 59.0
74 61.0 63.0
75 11.0 44.0
76 2.0 41.0
77 60.0 35.0
78 62.0 37.0
79 15.0 53.0
80 49.0 55.0
81 46.0 13.0
82 23.0 45.0
83 43.0 23.0
84 21.0 57.0
85 55.0 52.0
86 62.0 3.0
87 38.0 18.0
88 62.0 12.0
89 18.0 21.0
90 10.0 38.0
91 53.0 18.0
92 30.0 59.0
93 34.0 23.0
94 25.0 54.0
95 29.0 36.0
96 41.0 1.0
97 2.0 61.0
98 59.0 34.0
99 14.0 44.0
100 25.0 11.0
101 21.0 4.0
102 62.0 5.0
103 4.0 52.0
104 10.0 31.0
105 22.0 60.0
106 9.0 42.0
107 47.0 4.0
108 31.0 17.0
109 44.0 51.0
110 5.0 25.0
111 49.0 59.0
112 21.0 52.0
113 59.0 36.0
114 27.0 31.0
115 13.0 14.0
116 32.0 27.0
117 42.0 38.0
118 30.0 45.0
119 10.0 42.0
120 22.0 7.0
121 62.0 25.0
122 46.0 29.0
123 49.0 34.0
124 17.0 11.0
125 15.0 41.0
126 14.0 21.0
127 49.0 61.0
128 61.0 26.0
129 52.0 23.0
130 19.0 20.0
131 42.0 31.0
132 18.0 9.0
133 3.0 51.0
134 10.0 44.0
135 12.0 17.0
136 38.0 36.0
137 52.0 62.0
138 4.0 22.0
139 12.0 35.0
140 6.0 49.0
141 55.0 33.0
142 18.0 57.0
143 47.0 38.0
144 33.0 21.0
145 27.0 35.0
146 25.0 17.0
147 50.0 37.0
148 18.0 11.0
149 7.0 11.0
150 54.0 62.0
151 63.0 10.0
152 31.0 5.0
153 45.0 4.0
154 19.0 49.0
155 52.0 9.0
156 18.0 41.0
157 7.0 41.0
158 36.0 31.0
159 11.0 11.0
160 25.0 10.0
161 16.0 7.0
162 42.0 26.0
163 27.0 37.0
164 62.0 13.0
165 29.0 10.0
166 38.0 22.0
167 17.0 54.0
168 9.0 50.0
169 26.0 29.0
170 4.0 63.0
171 29.0 37.0
172 4.0 17.0
173 35.0 50.0
174 62.0 34.0
175 59.0 26.0
176 17.0 20.0
177 59.0 44.0
178 20.0 55.0
179 17.0 38.0
180 30.0 35.0
181 21.0 63.0
182 26.0 22.0
183 29.0 21.0
184 9.0 52.0
185 15.0 31.0
186 38.0 33.0
187 60.0 63.0
188 21.0 26.0
189 55.0 21.0
190 33.0 55.0
191 59.0 37.0
192 34.0 47.0
193 10.0 25.0
194 39.0 61.0
195 29.0 60.0
196 46.0 12.0
197 31.0 2.0
198 4.0 49.0
199 9.0 45.0
200 13.0 27.0
201 38.0 26.0
202 59.0 58.0
203 21.0 19.0
204 62.0 29.0
205 52.0 61.0
206 57.0 5.0
207 47.0 37.0
208 60.0 31.0
209 21.0 3.0
210 50.0 39.0
211 38.0 28.0
212 58.0 61.0
213 12.0 9.0
214 61.0 57.0
215 59.0 5.0
216 4.0 14.0
217 30.0 14.0
218 47.0 30.0
219 27.0 27.0
220 10.0 11.0
221 17.0 26.0
222 6.0 53.0
223 54.0 54.0
224 61.0 41.0
225 50.0 50.0
226 13.0 31.0
227 6.0 25.0
228 30.0 53.0
229 44.0 52.0
230 39.0 31.0
231 2.0 46.0
232 33.0 61.0
233 30.0 7.0
234 27.0 20.0
235 5.0 17.0
236 14.0 29.0
237 22.0 51.0
238 3.0 47.0
239 21.0 62.0
240 59.0 46.0
START_DEPOT_SECTION
1
2
3
4
5
6
7
8
9
10
11
12
13
14
15
16
17
18
19
20
21
22
23
24
25
26
27
28
29
30
-1
END_DEPOT_SECTION
31
32
33
34
35
36
37
38
39
40
41
42
43
44
45
46
47
48
49
50
51
52
53
54
55
56
57
58
59
60
-1
EOF
